sat
(:added-eqs                   164202
 :arith-eq-adapter            1362
 :arith-bound-propagations-lp 8534
 :arith-conflicts             14
 :arith-diseq                 5559
 :arith-fixed-eqs             4984
 :arith-lower                 8947
 :arith-make-feasible         5200
 :arith-max-columns           722
 :arith-max-rows              292
 :arith-offset-eqs            1323
 :arith-upper                 9498
 :binary-propagations         804720
 :conflicts                   2507
 :decisions                   235683
 :del-clause                  2849
 :elim-unconstrained          2
 :final-checks                1
 :max-memory                  29.90
 :memory                      22.19
 :minimized-lits              4773
 :mk-bool-var                 9592
 :mk-clause                   6771
 :mk-clause-binary            10272
 :num-allocs                  24659001
 :num-checks                  1
 :propagations                1041223
 :restarts                    21
 :rlimit-count                9189144
 :time                        4.90
 :total-time                  5.14)
